c *********************************
c * Circuit generated by BenCGen
c *
c * CarrySaveAdder_4_4_4_4_5
c *
c * Ports with 1 gate(s): 2
c * Ports with 2 gate(s): 21
c * Total gates: 23
c *********************************
p cnf 35 75
1 23 0
-1 -23 0
1 -22 0
23 -22 0
-1 -23 22 0
22 -17 0
-22 17 0
1 5 -24 0
-1 5 24 0
1 -5 24 0
-1 -5 -24 0
24 9 -13 0
-24 9 13 0
24 -9 13 0
-24 -9 -13 0
9 -25 0
24 -25 0
-9 -24 25 0
5 -26 0
1 -26 0
-5 -1 26 0
-25 18 0
-26 18 0
25 26 -18 0
2 6 -27 0
-2 6 27 0
2 -6 27 0
-2 -6 -27 0
27 10 -14 0
-27 10 14 0
27 -10 14 0
-27 -10 -14 0
10 -28 0
27 -28 0
-10 -27 28 0
6 -29 0
2 -29 0
-6 -2 29 0
-28 19 0
-29 19 0
28 29 -19 0
3 7 -30 0
-3 7 30 0
3 -7 30 0
-3 -7 -30 0
30 11 -15 0
-30 11 15 0
30 -11 15 0
-30 -11 -15 0
11 -31 0
30 -31 0
-11 -30 31 0
7 -32 0
3 -32 0
-7 -3 32 0
-31 20 0
-32 20 0
31 32 -20 0
4 8 -33 0
-4 8 33 0
4 -8 33 0
-4 -8 -33 0
33 12 -16 0
-33 12 16 0
33 -12 16 0
-33 -12 -16 0
12 -34 0
33 -34 0
-12 -33 34 0
8 -35 0
4 -35 0
-8 -4 35 0
-34 21 0
-35 21 0
34 35 -21 0
